mp-aaaabsyn Li2GaAu (110) term 0 selfslab
1.0
   4.352576649980    0.000000000000    0.000000000000
   0.000000000000    6.155472929670    0.000000000000
   0.000000000000    0.000000000000   30.468036549860
Li Ga Au
12 6 6
direct
   0.250000000000    0.750000000000    0.392857142857 Li
   0.250000000000    0.000000000000    0.321428571429 Li
   0.750000000000    0.250000000000    0.321428571429 Li
   0.750000000000    0.500000000000    0.392857142857 Li
   0.250000000000    0.750000000000    0.535714285714 Li
   0.250000000000    1.000000000000    0.464285714286 Li
   0.750000000000    0.250000000000    0.464285714286 Li
   0.750000000000    0.500000000000    0.535714285714 Li
   0.250000000000    0.750000000000    0.678571428571 Li
   0.250000000000    0.000000000000    0.607142857143 Li
   0.750000000000    0.250000000000    0.607142857143 Li
   0.750000000000    0.500000000000    0.678571428571 Li
   0.750000000000    0.000000000000    0.392857142857 Ga
   0.250000000000    0.500000000000    0.321428571429 Ga
   0.750000000000    1.000000000000    0.535714285714 Ga
   0.250000000000    0.500000000000    0.464285714286 Ga
   0.750000000000    0.000000000000    0.678571428571 Ga
   0.250000000000    0.500000000000    0.607142857143 Ga
   0.250000000000    0.250000000000    0.392857142857 Au
   0.750000000000    0.750000000000    0.321428571429 Au
   0.250000000000    0.250000000000    0.535714285714 Au
   0.750000000000    0.750000000000    0.464285714286 Au
   0.250000000000    0.250000000000    0.678571428571 Au
   0.750000000000    0.750000000000    0.607142857143 Au
