mp-aaaaaaiv ZrRh3 (111) term 0 selfslab
1.0
   5.563666994394    0.000000000000    0.000000000000
   2.781833497197    4.818276955342    0.000000000000
   0.000000000000    0.000000000000   27.256290470060
Zr Rh
5 15
direct
  -1.333333333333   -1.333333333333    0.333333333333 Zr
  -1.666666666667   -1.666666666667    0.416666666667 Zr
  -2.000000000000   -2.000000000000    0.500000000000 Zr
  -2.333333333333   -2.333333333333    0.583333333333 Zr
  -2.666666666667   -2.666666666667    0.666666666667 Zr
  -0.833333333333   -1.333333333333    0.333333333333 Rh
  -1.333333333333   -0.833333333333    0.333333333333 Rh
  -0.833333333333   -0.833333333333    0.333333333333 Rh
  -1.166666666667   -1.666666666667    0.416666666667 Rh
  -1.666666666667   -1.166666666667    0.416666666667 Rh
  -1.166666666667   -1.166666666667    0.416666666667 Rh
  -1.500000000000   -2.000000000000    0.500000000000 Rh
  -2.000000000000   -1.500000000000    0.500000000000 Rh
  -1.500000000000   -1.500000000000    0.500000000000 Rh
  -1.833333333333   -2.333333333333    0.583333333333 Rh
  -2.333333333333   -1.833333333333    0.583333333333 Rh
  -1.833333333333   -1.833333333333    0.583333333333 Rh
  -2.166666666667   -2.666666666667    0.666666666667 Rh
  -2.666666666667   -2.166666666667    0.666666666667 Rh
  -2.166666666667   -2.166666666667    0.666666666667 Rh
