mp-aaacezrr LiZrSe2 (110) term 0 selfslab
1.0
   6.641098524882    0.000000000000    0.000000000000
   0.000000000000    6.483369299896    0.000000000000
   0.000000000000    0.000000000000   28.073812579132
Li Zr Se
6 6 12
direct
   0.500000000000    2.500000000000    0.333333333333 Li
   0.500000000000    3.000000000000    0.400000000000 Li
   0.500000000000    3.500000000000    0.466666666667 Li
   0.500000000000    4.000000000000    0.533333333333 Li
   0.500000000000    4.500000000000    0.600000000000 Li
   0.500000000000    5.000000000000    0.666666666667 Li
   0.000000000000    2.500000000000    0.333333333333 Zr
   0.000000000000    3.000000000000    0.400000000000 Zr
   0.000000000000    3.500000000000    0.466666666667 Zr
   0.000000000000    4.000000000000    0.533333333333 Zr
   0.000000000000    4.500000000000    0.600000000000 Zr
   0.000000000000    5.000000000000    0.666666666667 Zr
   0.251650290000    3.166666666667    0.333333333333 Se
   0.748349710000    2.833333333333    0.333333333333 Se
   0.251650290000    3.666666666667    0.400000000000 Se
   0.748349710000    3.333333333333    0.400000000000 Se
   0.251650290000    4.166666666667    0.466666666667 Se
   0.748349710000    3.833333333333    0.466666666667 Se
   0.251650290000    4.666666666667    0.533333333333 Se
   0.748349710000    4.333333333333    0.533333333333 Se
   0.251650290000    5.166666666667    0.600000000000 Se
   0.748349710000    4.833333333333    0.600000000000 Se
   0.251650290000    5.666666666667    0.666666666667 Se
   0.748349710000    5.333333333333    0.666666666667 Se
