mp-aaadjzbl ICl3 (001) term 0 selfslab
1.0
   5.567245113941    0.000000000000    0.000000000000
   0.833387302739    5.790624047197    0.000000000000
   0.000000000000    0.000000000000   31.871398727716
I Cl
4 12
direct
   1.231444600051    1.750129532160    0.454051707500 I
   0.450316314896    0.490181565272    0.295948292500 I
   1.458698238367    2.163566564638    0.704051707500 I
   0.677569953211    0.903618597749    0.545948292500 I
   0.725038485067    0.766750111171    0.300875122500 Cl
   0.956722429880    1.473560986262    0.449124877500 Cl
   1.130067908610    1.185692426994    0.283666260000 Cl
   0.551693006337    1.054618670439    0.466333740000 Cl
   0.541887090569    1.334397289945    0.363666642500 Cl
   1.139873824378    0.905913807487    0.386333357500 Cl
   0.952292123383    1.180187143648    0.550875122500 Cl
   1.183976068195    1.886998018739    0.699124877500 Cl
   1.357321546925    1.599129459471    0.533666260000 Cl
   0.778946644653    1.468055702916    0.716333740000 Cl
   0.769140728884    1.747834322422    0.613666642500 Cl
   1.367127462694    1.319350839965    0.636333357500 Cl
