mp-aaacjkvs Ti3Sn (001) term 0 selfslab
1.0
   5.732756540000    0.000000000000    0.000000000000
  -2.866378270000    5.248549720000    0.000000000000
   0.000000000000    0.000000000000   33.190072160000
Ti Sn
18 6
direct
   0.820932450000    0.641864900000    0.392857142857 Ti
   0.179067550000    0.358135100000    0.321428571429 Ti
   0.314404170000    0.146414680000    0.392857142857 Ti
   0.167989490000    0.853585320000    0.321428571429 Ti
   0.685595830000    0.853585320000    0.321428571429 Ti
   0.832010510000    0.146414680000    0.392857142857 Ti
   0.820932450000    0.641864900000    0.535714285714 Ti
   0.179067550000    0.358135100000    0.464285714286 Ti
   0.314404170000    0.146414680000    0.535714285714 Ti
   0.167989490000    0.853585320000    0.464285714286 Ti
   0.685595830000    0.853585320000    0.464285714286 Ti
   0.832010510000    0.146414680000    0.535714285714 Ti
   0.820932450000    0.641864900000    0.678571428571 Ti
   0.179067550000    0.358135100000    0.607142857143 Ti
   0.314404170000    0.146414680000    0.678571428571 Ti
   0.167989490000    0.853585320000    0.607142857143 Ti
   0.685595830000    0.853585320000    0.607142857143 Ti
   0.832010510000    0.146414680000    0.678571428571 Ti
   0.332699930000    0.665399860000    0.392857142857 Sn
   0.667300070000    0.334600140000    0.321428571429 Sn
   0.332699930000    0.665399860000    0.535714285714 Sn
   0.667300070000    0.334600140000    0.464285714286 Sn
   0.332699930000    0.665399860000    0.678571428571 Sn
   0.667300070000    0.334600140000    0.607142857143 Sn
