mp-aaaaagqm Ba(PRu)2 (100) term 0 selfslab
1.0
   4.036742944044    0.000000000000    0.000000000000
   0.000000000000   12.309294461845    0.000000000000
   0.000000000000    0.000000000000   28.257200608310
Ba P Ru
6 12 12
direct
   0.000000000000    0.000000000000    0.392857142857 Ba
   0.500000000000    0.500000000000    0.321428571429 Ba
   0.000000000000    0.000000000000    0.535714285714 Ba
   0.500000000000    0.500000000000    0.464285714286 Ba
   0.000000000000    0.000000000000    0.678571428571 Ba
   0.500000000000    0.500000000000    0.607142857143 Ba
   0.500000000000    0.158231390000    0.321428571429 P
   0.000000000000    0.341768610000    0.392857142857 P
   0.000000000000    0.658231390000    0.392857142857 P
   0.500000000000    0.841768610000    0.321428571429 P
   0.500000000000    0.158231390000    0.464285714286 P
   0.000000000000    0.341768610000    0.535714285714 P
   0.000000000000    0.658231390000    0.535714285714 P
   0.500000000000    0.841768610000    0.464285714286 P
   0.500000000000    0.158231390000    0.607142857143 P
   0.000000000000    0.341768610000    0.678571428571 P
   0.000000000000    0.658231390000    0.678571428571 P
   0.500000000000    0.841768610000    0.607142857143 P
   0.500000000000    0.250000000000    0.392857142857 Ru
   0.000000000000    0.250000000000    0.321428571429 Ru
   0.000000000000    0.750000000000    0.321428571429 Ru
   0.500000000000    0.750000000000    0.392857142857 Ru
   0.500000000000    0.250000000000    0.535714285714 Ru
   0.000000000000    0.250000000000    0.464285714286 Ru
   0.000000000000    0.750000000000    0.464285714286 Ru
   0.500000000000    0.750000000000    0.535714285714 Ru
   0.500000000000    0.250000000000    0.678571428571 Ru
   0.000000000000    0.250000000000    0.607142857143 Ru
   0.000000000000    0.750000000000    0.607142857143 Ru
   0.500000000000    0.750000000000    0.678571428571 Ru
