mp-aaahhkfw Mg2ZnPt2 (001) term 1 selfslab
1.0
   4.045144362183    0.000000000000    0.000000000000
   0.000000000000    5.605682940223    0.000000000000
   0.000000000000    0.000000000000   30.116487653814
Mg Zn Pt
8 4 8
direct
   0.000000000000    0.500000000000    0.388074730289 Mg
   0.000000000000    0.500000000000    0.486925269711 Mg
   0.500000000000    0.000000000000    0.263074730289 Mg
   0.500000000000    0.000000000000    0.361925269711 Mg
   0.000000000000    0.500000000000    0.638074730289 Mg
   0.000000000000    0.500000000000    0.736925269711 Mg
   0.500000000000    0.000000000000    0.513074730289 Mg
   0.500000000000    0.000000000000    0.611925269711 Mg
   0.000000000000    0.000000000000    0.437500000000 Zn
   0.500000000000    0.500000000000    0.312500000000 Zn
   0.000000000000    0.000000000000    0.687500000000 Zn
   0.500000000000    0.500000000000    0.562500000000 Zn
   0.500000000000    0.734014864772    0.437500000000 Pt
   0.500000000000    0.265985135228    0.437500000000 Pt
   0.000000000000    0.234014864772    0.312500000000 Pt
   0.000000000000    0.765985135228    0.312500000000 Pt
   0.500000000000    0.734014864772    0.687500000000 Pt
   0.500000000000    0.265985135228    0.687500000000 Pt
   0.000000000000    0.234014864772    0.562500000000 Pt
   0.000000000000    0.765985135228    0.562500000000 Pt
