mp-aaaaauaa Na2ZnGe (110) term 0 selfslab
1.0
   5.432736850000    0.000000000000    0.000000000000
   0.000000000000    5.860283136498    0.000000000000
   0.000000000000    0.000000000000   28.648750768115
Na Zn Ge
8 4 4
direct
   0.750000000000    0.651213360158    0.506448612000 Na
   0.250000000000    0.089469471824    0.693551388000 Na
   0.250000000000    0.876443770387    0.563460756000 Na
   0.750000000000    0.864239061594    0.636539244000 Na
   0.750000000000    0.861099554827    0.306448612000 Na
   0.250000000000    0.299355666493    0.493551388000 Na
   0.250000000000    0.086329965057    0.363460756000 Na
   0.750000000000    0.074125256264    0.436539244000 Na
   0.000000000000    0.370341415991    0.600000000000 Zn
   0.500000000000    0.370341415991    0.600000000000 Zn
   0.000000000000    0.580227610660    0.400000000000 Zn
   0.500000000000    0.580227610660    0.400000000000 Zn
   0.750000000000    0.157486566195    0.546120458000 Ge
   0.250000000000    0.583196265786    0.653879542000 Ge
   0.750000000000    0.367372760865    0.346120458000 Ge
   0.250000000000    0.793082460456    0.453879542000 Ge
