mp-aaaabhvf HgI (001) term 0 selfslab
1.0
   5.070440821420    0.000000000000    0.000000000000
   0.000000000000    5.070440821420    0.000000000000
   0.000000000000    0.000000000000   35.315035574922
Hg I
4 4
direct
   0.000000000000    0.000000000000    0.629479326667 Hg
   0.500000000000    0.500000000000    0.537187340000 Hg
   0.500000000000    0.500000000000    0.462812660000 Hg
   0.000000000000    0.000000000000    0.370520673333 Hg
   0.000000000000    0.000000000000    0.551472900000 I
   0.500000000000    0.500000000000    0.615193766667 I
   0.500000000000    0.500000000000    0.384806233333 I
   0.000000000000    0.000000000000    0.448527100000 I
