mp-aaacdpvq Ta2VRu (110) term 0 selfslab
1.0
   4.455758713528    0.000000000000    0.000000000000
   0.000000000000    6.301394403334    0.000000000000
   0.000000000000    0.000000000000   31.190310994698
Ta V Ru
12 6 6
direct
   0.250000000000    0.750000000000    0.392857142857 Ta
   0.250000000000    0.250000000000    0.392857142857 Ta
   0.750000000000    0.250000000000    0.321428571429 Ta
   0.750000000000    0.750000000000    0.321428571429 Ta
   0.250000000000    0.750000000000    0.535714285714 Ta
   0.250000000000    0.250000000000    0.535714285714 Ta
   0.750000000000    0.250000000000    0.464285714286 Ta
   0.750000000000    0.750000000000    0.464285714286 Ta
   0.250000000000    0.750000000000    0.678571428571 Ta
   0.250000000000    0.250000000000    0.678571428571 Ta
   0.750000000000    0.250000000000    0.607142857143 Ta
   0.750000000000    0.750000000000    0.607142857143 Ta
   0.750000000000    0.500000000000    0.392857142857 V
   0.250000000000    1.000000000000    0.321428571429 V
   0.750000000000    0.500000000000    0.535714285714 V
   0.250000000000    1.000000000000    0.464285714286 V
   0.750000000000    0.500000000000    0.678571428571 V
   0.250000000000    1.000000000000    0.607142857143 V
   0.750000000000    1.000000000000    0.392857142857 Ru
   0.250000000000    0.500000000000    0.321428571429 Ru
   0.750000000000    0.000000000000    0.535714285714 Ru
   0.250000000000    0.500000000000    0.464285714286 Ru
   0.750000000000    1.000000000000    0.678571428571 Ru
   0.250000000000    0.500000000000    0.607142857143 Ru
