mp-aaacpkjv HfZrOs2 (110) term 0 selfslab
1.0
   4.606988897113    0.000000000000    0.000000000000
   0.000000000000    6.515266180000    0.000000000000
   0.000000000000    0.000000000000   32.248922279794
Hf Zr Os
6 6 12
direct
   0.250000000000    1.000000000000    0.321428571429 Hf
   0.750000000000    0.500000000000    0.392857142857 Hf
   0.250000000000    1.000000000000    0.464285714286 Hf
   0.750000000000    0.500000000000    0.535714285714 Hf
   0.250000000000    0.000000000000    0.607142857143 Hf
   0.750000000000    0.500000000000    0.678571428571 Hf
   0.750000000000    1.000000000000    0.392857142857 Zr
   0.250000000000    0.500000000000    0.321428571429 Zr
   0.750000000000    1.000000000000    0.535714285714 Zr
   0.250000000000    0.500000000000    0.464285714286 Zr
   0.750000000000    1.000000000000    0.678571428571 Zr
   0.250000000000    0.500000000000    0.607142857143 Zr
   0.250000000000    0.250000000000    0.392857142857 Os
   0.750000000000    0.250000000000    0.321428571429 Os
   0.750000000000    0.750000000000    0.321428571429 Os
   0.250000000000    0.750000000000    0.392857142857 Os
   0.250000000000    0.250000000000    0.535714285714 Os
   0.750000000000    0.250000000000    0.464285714286 Os
   0.750000000000    0.750000000000    0.464285714286 Os
   0.250000000000    0.750000000000    0.535714285714 Os
   0.250000000000    0.250000000000    0.678571428571 Os
   0.750000000000    0.250000000000    0.607142857143 Os
   0.750000000000    0.750000000000    0.607142857143 Os
   0.250000000000    0.750000000000    0.678571428571 Os
