mp-aaacqpak BaAgBi (100) term 1 selfslab
1.0
   4.988495953985    0.000000000000    0.000000000000
   0.000000000000    9.414227590000    0.000000000000
   0.000000000000    0.000000000000   30.241149559789
Ba Ag Bi
6 6 6
direct
  -1.250000000000    0.000000000000    0.357142857143 Ba
  -1.250000000000    0.500000000000    0.357142857143 Ba
  -1.750000000000    0.000000000000    0.500000000000 Ba
  -1.750000000000    0.500000000000    0.500000000000 Ba
  -2.250000000000    0.000000000000    0.642857142857 Ba
  -2.250000000000    0.500000000000    0.642857142857 Ba
  -0.750000000000    0.750000000000    0.309523809524 Ag
  -0.750000000000    0.250000000000    0.404761904762 Ag
  -1.250000000000    0.750000000000    0.452380952381 Ag
  -1.250000000000    0.250000000000    0.547619047619 Ag
  -1.750000000000    0.750000000000    0.595238095238 Ag
  -1.750000000000    0.250000000000    0.690476190476 Ag
  -0.750000000000    0.250000000000    0.309523809524 Bi
  -0.750000000000    0.750000000000    0.404761904762 Bi
  -1.250000000000    0.250000000000    0.452380952381 Bi
  -1.250000000000    0.750000000000    0.547619047619 Bi
  -1.750000000000    0.250000000000    0.595238095238 Bi
  -1.750000000000    0.750000000000    0.690476190476 Bi
