mp-aaaaabxl PtO2 (001) term 1 selfslab
1.0
   3.156835650000    0.000000000000    0.000000000000
   0.000000000000    4.510067090000    0.000000000000
   0.000000000000    0.000000000000   31.830138060000
Pt O
6 12
direct
   0.000000000000    0.000000000000    0.392857142857 Pt
   0.500000000000    0.500000000000    0.321428571429 Pt
   0.000000000000    0.000000000000    0.535714285714 Pt
   0.500000000000    0.500000000000    0.464285714286 Pt
   0.000000000000    0.000000000000    0.678571428571 Pt
   0.500000000000    0.500000000000    0.607142857143 Pt
   0.000000000000    0.359190630000    0.287342418571 O
   0.000000000000    0.640809370000    0.355514724286 O
   0.500000000000    0.140809370000    0.358770990000 O
   0.500000000000    0.859190630000    0.426943295714 O
   0.000000000000    0.359190630000    0.430199561429 O
   0.000000000000    0.640809370000    0.498371867143 O
   0.500000000000    0.140809370000    0.501628132857 O
   0.500000000000    0.859190630000    0.569800438571 O
   0.000000000000    0.359190630000    0.573056704286 O
   0.000000000000    0.640809370000    0.641229010000 O
   0.500000000000    0.140809370000    0.644485275714 O
   0.500000000000    0.859190630000    0.712657581429 O
