mp-aaabxiuv SrInHg2 (110) term 0 selfslab
1.0
   5.322431618722    0.000000000000    0.000000000000
   0.000000000000    7.527054980000    0.000000000000
   0.000000000000    0.000000000000   26.612158093610
Sr In Hg
4 4 8
direct
   0.250000000000    1.000000000000    0.450000000000 Sr
   0.750000000000    0.500000000000    0.350000000000 Sr
   0.250000000000    0.000000000000    0.650000000000 Sr
   0.750000000000    0.500000000000    0.550000000000 Sr
   0.750000000000    0.000000000000    0.350000000000 In
   0.250000000000    0.500000000000    0.450000000000 In
   0.750000000000    0.000000000000    0.550000000000 In
   0.250000000000    0.500000000000    0.650000000000 In
   0.250000000000    0.750000000000    0.350000000000 Hg
   0.750000000000    0.750000000000    0.450000000000 Hg
   0.750000000000    0.250000000000    0.450000000000 Hg
   0.250000000000    0.250000000000    0.350000000000 Hg
   0.250000000000    0.750000000000    0.550000000000 Hg
   0.750000000000    0.750000000000    0.650000000000 Hg
   0.750000000000    0.250000000000    0.650000000000 Hg
   0.250000000000    0.250000000000    0.550000000000 Hg
