mp-aaahhibq Zr4GaAs (100) term 1 selfslab
1.0
   6.663562895541    0.000000000000    0.000000000000
   0.000000000000    5.410296339462    0.000000000000
   0.000000000000    0.000000000000   33.317814477706
Zr Ga As
16 4 4
direct
   0.344587990889    0.750000000000    0.481082401822 Zr
   0.655412009111    0.250000000000    0.481082401822 Zr
   0.655412009111    0.750000000000    0.418917598178 Zr
   0.344587990889    0.250000000000    0.418917598178 Zr
   0.844587990889    0.250000000000    0.381082401822 Zr
   0.155412009111    0.750000000000    0.381082401822 Zr
   0.155412009111    0.250000000000    0.318917598178 Zr
   0.844587990889    0.750000000000    0.318917598178 Zr
   0.344587990889    0.750000000000    0.681082401822 Zr
   0.655412009111    0.250000000000    0.681082401822 Zr
   0.655412009111    0.750000000000    0.618917598178 Zr
   0.344587990889    0.250000000000    0.618917598178 Zr
   0.844587990889    0.250000000000    0.581082401822 Zr
   0.155412009111    0.750000000000    0.581082401822 Zr
   0.155412009111    0.250000000000    0.518917598178 Zr
   0.844587990889    0.750000000000    0.518917598178 Zr
   0.000000000000    0.000000000000    0.450000000000 Ga
   0.500000000000    0.500000000000    0.350000000000 Ga
   0.000000000000    0.000000000000    0.650000000000 Ga
   0.500000000000    0.500000000000    0.550000000000 Ga
   0.000000000000    0.500000000000    0.450000000000 As
   0.500000000000    0.000000000000    0.350000000000 As
   0.000000000000    0.500000000000    0.650000000000 As
   0.500000000000    0.000000000000    0.550000000000 As
