mp-aaahafln Ca(Tc2Ge)2 (110) term 3 selfslab
1.0
   4.108181508118    0.000000000000    0.000000000000
   0.000000000000    7.467641005470    0.000000000000
   0.000000000000    0.000000000000   27.754255251156
Ca Tc Ge
3 12 6
direct
   1.000000000000    0.313333195312    0.642857142857 Ca
  -0.000000000000    0.465925818576    0.500000000000 Ca
  -0.000000000000    0.618518441840    0.357142857143 Ca
   0.500000000000    0.673808187664    0.670732114088 Tc
   0.500000000000    0.952858202961    0.614982171626 Tc
  -0.000000000000    0.868893342618    0.685817746094 Tc
  -0.000000000000    0.757773048007    0.599896539620 Tc
   0.500000000000    0.826400810928    0.527874971231 Tc
   0.500000000000    0.105450826225    0.472125028769 Tc
   1.000000000000    0.021485965882    0.542960603237 Tc
   1.000000000000    0.910365671271    0.457039396763 Tc
   0.500000000000   -0.021006565808    0.385017828374 Tc
   0.500000000000    0.258043449489    0.329267885912 Tc
  -0.000000000000    0.174078589146    0.400103460380 Tc
  -0.000000000000    0.062958294534    0.314182253906 Tc
   0.500000000000    0.071509863025    0.701485766892 Ge
   0.500000000000    0.555156527600    0.584228518822 Ge
   0.500000000000    0.224102486289    0.558628624035 Ge
   0.500000000000    0.707749150864    0.441371375965 Ge
   0.500000000000    0.376695109552    0.415771481178 Ge
   0.500000000000    0.860341774128    0.298514233108 Ge
