mp-aaadbngd MgSnF6 (110) term 2 selfslab
1.0
   5.482659645639    0.000000000000    0.000000000000
  -0.633228980919    7.499757039893    0.000000000000
   0.000000000000    0.000000000000   25.781668783159
Mg Sn F
4 4 24
direct
   0.250000000000    0.750000000000    0.350000000000 Mg
   0.750000000000    0.250000000000    0.450000000000 Mg
   0.250000000000    0.750000000000    0.550000000000 Mg
   0.750000000000    0.250000000000    0.650000000000 Mg
   0.250000000000    0.250000000000    0.350000000000 Sn
   0.750000000000    0.750000000000    0.450000000000 Sn
   0.250000000000    0.250000000000    0.550000000000 Sn
   0.750000000000    0.750000000000    0.650000000000 Sn
   0.559380750000    0.808483810000    0.311814894000 F
   0.250743800000    0.499846860000    0.326457716000 F
   0.558330670000    0.309227610000    0.388272610000 F
   0.249256200000    0.000153140000    0.373542284000 F
   0.940619250000    0.691516190000    0.388185106000 F
   0.941669330000    0.190772390000    0.311727390000 F
   0.059380750000    0.308483810000    0.411814894000 F
   0.750743800000    0.999846860000    0.426457716000 F
   0.058330670000    0.809227610000    0.488272610000 F
   0.749256200000    0.500153140000    0.473542284000 F
   0.440619250000    0.191516190000    0.488185106000 F
   0.441669330000    0.690772390000    0.411727390000 F
   0.559380750000    0.808483810000    0.511814894000 F
   0.250743800000    0.499846860000    0.526457716000 F
   0.558330670000    0.309227610000    0.588272610000 F
   0.249256200000    0.000153140000    0.573542284000 F
   0.940619250000    0.691516190000    0.588185106000 F
   0.941669330000    0.190772390000    0.511727390000 F
   0.059380750000    0.308483810000    0.611814894000 F
   0.750743800000    0.999846860000    0.626457716000 F
   0.058330670000    0.809227610000    0.688272610000 F
   0.749256200000    0.500153140000    0.673542284000 F
   0.440619250000    0.191516190000    0.688185106000 F
   0.441669330000    0.690772390000    0.611727390000 F
