mp-aaaabiaz Ca2BrN (110) term 0 selfslab
1.0
   6.425062227449    0.000000000000    0.000000000000
   2.141687409150    6.862878731305    0.000000000000
   0.000000000000    0.000000000000   27.821335549334
Ca Br N
12 6 6
direct
   0.774173300000    0.677480100000    0.666666666667 Ca
   1.225826700000    0.322519900000    0.666666666667 Ca
   1.274173300000    0.677480100000    0.600000000000 Ca
   0.725826700000    0.322519900000    0.600000000000 Ca
   0.774173300000    0.677480100000    0.533333333333 Ca
   1.225826700000    0.322519900000    0.533333333333 Ca
   0.274173300000    0.677480100000    0.466666666667 Ca
   0.725826700000    0.322519900000    0.466666666667 Ca
   0.774173300000    0.677480100000    0.400000000000 Ca
   0.225826700000    0.322519900000    0.400000000000 Ca
   0.274173300000    0.677480100000    0.333333333333 Ca
   0.725826700000    0.322519900000    0.333333333333 Ca
   1.000000000000    1.000000000000    0.666666666667 Br
   0.500000000000    1.000000000000    0.600000000000 Br
   1.000000000000    1.000000000000    0.533333333333 Br
   0.500000000000    1.000000000000    0.466666666667 Br
   1.000000000000    1.000000000000    0.400000000000 Br
   0.500000000000    1.000000000000    0.333333333333 Br
   0.500000000000    0.500000000000    0.666666666667 N
   1.000000000000    0.500000000000    0.600000000000 N
   0.500000000000    0.500000000000    0.533333333333 N
   1.000000000000    0.500000000000    0.466666666667 N
   0.500000000000    0.500000000000    0.400000000000 N
   1.000000000000    0.500000000000    0.333333333333 N
