mp-aaaabjqf ScHCl (001) term 2 selfslab
1.0
   3.495253366175    0.000000000000    0.000000000000
  -1.747626683087    3.026978207770    0.000000000000
   0.000000000000    0.000000000000   55.389987526956
Sc H Cl
6 6 6
direct
   0.666666666667    0.333333333333    0.272649588333 Sc
   0.000000000000    0.000000000000    0.727350411667 Sc
   0.333333333333    0.666666666667    0.439316255000 Sc
   0.666666666667    0.333333333333    0.394017078333 Sc
   0.000000000000    0.000000000000    0.605982921667 Sc
   0.333333333333    0.666666666667    0.560683745000 Sc
   0.666666666667    0.333333333333    0.736514113333 H
   0.000000000000    0.000000000000    0.263485886667 H
   0.333333333333    0.666666666667    0.403180780000 H
   0.666666666667    0.333333333333    0.430152553333 H
   0.000000000000    0.000000000000    0.569847446667 H
   0.333333333333    0.666666666667    0.596819220000 H
   0.333333333333    0.666666666667    0.698151290000 Cl
   0.333333333333    0.666666666667    0.301848710000 Cl
   0.000000000000    0.000000000000    0.364817956667 Cl
   0.000000000000    0.000000000000    0.468515376667 Cl
   0.666666666667    0.333333333333    0.531484623333 Cl
   0.666666666667    0.333333333333    0.635182043333 Cl
