mp-aaacpnwy Sc3Sn (001) term 0 selfslab
1.0
   6.373602329391    0.000000000000    0.000000000000
  -3.186801164696    5.519701530872    0.000000000000
   0.000000000000    0.000000000000   25.996694100000
Sc Sn
12 4
direct
   0.338101280000    0.169050640000    0.450000000000 Sc
   0.830949360000    0.169050640000    0.450000000000 Sc
   0.830949360000    0.661898720000    0.450000000000 Sc
   0.661898720000    0.830949360000    0.350000000000 Sc
   0.169050640000    0.830949360000    0.350000000000 Sc
   0.169050640000    0.338101280000    0.350000000000 Sc
   0.338101280000    0.169050640000    0.650000000000 Sc
   0.830949360000    0.169050640000    0.650000000000 Sc
   0.830949360000    0.661898720000    0.650000000000 Sc
   0.661898720000    0.830949360000    0.550000000000 Sc
   0.169050640000    0.830949360000    0.550000000000 Sc
   0.169050640000    0.338101280000    0.550000000000 Sc
   0.666666666667    0.333333333333    0.350000000000 Sn
   0.333333333333    0.666666666667    0.450000000000 Sn
   0.666666666667    0.333333333333    0.550000000000 Sn
   0.333333333333    0.666666666667    0.650000000000 Sn
