mp-aaahaebj Hf4GaP (100) term 1 selfslab
1.0
   6.513673976969    0.000000000000    0.000000000000
   0.000000000000    5.217156767689    0.000000000000
   0.000000000000    0.000000000000   32.568369884845
Hf Ga P
16 4 4
direct
   0.156458701348    0.750000000000    0.381291740270 Hf
   0.843541298652    0.750000000000    0.318708259730 Hf
   0.843541298652    0.250000000000    0.381291740270 Hf
   0.156458701348    0.250000000000    0.318708259730 Hf
   0.656458701348    0.250000000000    0.481291740270 Hf
   0.343541298652    0.250000000000    0.418708259730 Hf
   0.343541298652    0.750000000000    0.481291740270 Hf
   0.656458701348    0.750000000000    0.418708259730 Hf
   0.156458701348    0.750000000000    0.581291740270 Hf
   0.843541298652    0.750000000000    0.518708259730 Hf
   0.843541298652    0.250000000000    0.581291740270 Hf
   0.156458701348    0.250000000000    0.518708259730 Hf
   0.656458701348    0.250000000000    0.681291740270 Hf
   0.343541298652    0.250000000000    0.618708259730 Hf
   0.343541298652    0.750000000000    0.681291740270 Hf
   0.656458701348    0.750000000000    0.618708259730 Hf
   0.000000000000    0.500000000000    0.450000000000 Ga
   0.500000000000    0.000000000000    0.350000000000 Ga
   0.000000000000    0.500000000000    0.650000000000 Ga
   0.500000000000    0.000000000000    0.550000000000 Ga
   0.000000000000    0.000000000000    0.450000000000 P
   0.500000000000    0.500000000000    0.350000000000 P
   0.000000000000    0.000000000000    0.650000000000 P
   0.500000000000    0.500000000000    0.550000000000 P
