mp-aaaabgrv Ga2Pt (110) term 0 selfslab
1.0
   4.197269717299    0.000000000000    0.000000000000
   0.000000000000    5.935835759143    0.000000000000
   0.000000000000    0.000000000000   29.380888021096
Ga Pt
12 6
direct
   0.250000000000    0.750000000000    0.392857142857 Ga
   0.250000000000    0.250000000000    0.392857142857 Ga
   0.750000000000    0.250000000000    0.321428571429 Ga
   0.750000000000    0.750000000000    0.321428571429 Ga
   0.250000000000    0.750000000000    0.535714285714 Ga
   0.250000000000    0.250000000000    0.535714285714 Ga
   0.750000000000    0.250000000000    0.464285714286 Ga
   0.750000000000    0.750000000000    0.464285714286 Ga
   0.250000000000    0.750000000000    0.678571428571 Ga
   0.250000000000    0.250000000000    0.678571428571 Ga
   0.750000000000    0.250000000000    0.607142857143 Ga
   0.750000000000    0.750000000000    0.607142857143 Ga
   0.750000000000    0.000000000000    0.392857142857 Pt
   0.250000000000    0.500000000000    0.321428571429 Pt
   0.750000000000    1.000000000000    0.535714285714 Pt
   0.250000000000    0.500000000000    0.464285714286 Pt
   0.750000000000    1.000000000000    0.678571428571 Pt
   0.250000000000    0.500000000000    0.607142857143 Pt
