mp-aaabxapz Ti2CoIr (110) term 0 selfslab
1.0
   4.322085321925    0.000000000000    0.000000000000
   0.000000000000    6.112351680000    0.000000000000
   0.000000000000    0.000000000000   30.254597253475
Ti Co Ir
12 6 6
direct
   0.750000000000    0.750000000000    0.321428571429 Ti
   0.250000000000    0.750000000000    0.392857142857 Ti
   0.250000000000    0.250000000000    0.392857142857 Ti
   0.750000000000    0.250000000000    0.321428571429 Ti
   0.750000000000    0.750000000000    0.464285714286 Ti
   0.250000000000    0.750000000000    0.535714285714 Ti
   0.250000000000    0.250000000000    0.535714285714 Ti
   0.750000000000    0.250000000000    0.464285714286 Ti
   0.750000000000    0.750000000000    0.607142857143 Ti
   0.250000000000    0.750000000000    0.678571428571 Ti
   0.250000000000    0.250000000000    0.678571428571 Ti
   0.750000000000    0.250000000000    0.607142857143 Ti
   0.250000000000    1.000000000000    0.321428571429 Co
   0.750000000000    0.500000000000    0.392857142857 Co
   0.250000000000    1.000000000000    0.464285714286 Co
   0.750000000000    0.500000000000    0.535714285714 Co
   0.250000000000    1.000000000000    0.607142857143 Co
   0.750000000000    0.500000000000    0.678571428571 Co
   0.750000000000    1.000000000000    0.392857142857 Ir
   0.250000000000    0.500000000000    0.321428571429 Ir
   0.750000000000    1.000000000000    0.535714285714 Ir
   0.250000000000    0.500000000000    0.464285714286 Ir
   0.750000000000    1.000000000000    0.678571428571 Ir
   0.250000000000    0.500000000000    0.607142857143 Ir
