mp-aaacqqai HfMnF6 (001) term 1 selfslab
1.0
   5.783040424444    0.000000000000    0.000000000000
  -0.000000000000    5.783040424444    0.000000000000
   0.000000000000    0.000000000000   32.713816800000
Hf Mn F
4 4 24
direct
   0.500000000000    0.500000000000    0.562500000000 Hf
   0.000000000000    0.000000000000    0.687500000000 Hf
   0.500000000000    0.500000000000    0.312500000000 Hf
   0.000000000000    0.000000000000    0.437500000000 Hf
   0.000000000000    0.000000000000    0.562500000000 Mn
   0.500000000000    0.500000000000    0.687500000000 Mn
   0.000000000000    0.000000000000    0.312500000000 Mn
   0.500000000000    0.500000000000    0.437500000000 Mn
   0.743221270000    0.743221270000    0.562500000000 F
   0.256778730000    0.256778730000    0.562500000000 F
   0.743221270000    0.256778730000    0.562500000000 F
   0.256778730000    0.743221270000    0.562500000000 F
   0.500000000000    0.500000000000    0.623305317500 F
   0.000000000000    0.000000000000    0.626694682500 F
   0.243221270000    0.243221270000    0.687500000000 F
   0.756778730000    0.756778730000    0.687500000000 F
   0.243221270000    0.756778730000    0.687500000000 F
   0.756778730000    0.243221270000    0.687500000000 F
   0.000000000000    0.000000000000    0.748305317500 F
   0.500000000000    0.500000000000    0.501694682500 F
   0.743221270000    0.743221270000    0.312500000000 F
   0.256778730000    0.256778730000    0.312500000000 F
   0.743221270000    0.256778730000    0.312500000000 F
   0.256778730000    0.743221270000    0.312500000000 F
   0.500000000000    0.500000000000    0.373305317500 F
   0.000000000000    0.000000000000    0.376694682500 F
   0.243221270000    0.243221270000    0.437500000000 F
   0.756778730000    0.756778730000    0.437500000000 F
   0.243221270000    0.756778730000    0.437500000000 F
   0.756778730000    0.243221270000    0.437500000000 F
   0.000000000000    0.000000000000    0.498305317500 F
   0.500000000000    0.500000000000    0.251694682500 F
