mp-aaacpfaw IBr (110) term 0 selfslab
1.0
   4.453791201305    0.000000000000    0.000000000000
   0.000000000000    8.646822070000    0.000000000000
   0.000000000000    0.000000000000   29.346688163402
I Br
6 6
direct
   0.656119548777    0.500000000000    0.357142857143 I
   0.656119548777    0.000000000000    0.357142857143 I
   0.318567368288    0.500000000000    0.500000000000 I
   0.318567368288    1.000000000000    0.500000000000 I
  -0.018984812201    0.500000000000    0.642857142857 I
  -0.018984812201    0.000000000000    0.642857142857 I
   0.442301623796    0.750000000000    0.311032934286 Br
  -0.130062526241    0.250000000000    0.403252780000 Br
   0.104749443307    0.750000000000    0.453890077143 Br
   0.532385293270    0.250000000000    0.546109922857 Br
   0.767197262817    0.750000000000    0.596747220000 Br
   0.194833112781    0.250000000000    0.688967065714 Br
