mp-aaaaadxv Al2Au (110) term 0 selfslab
1.0
   4.245942398172    0.000000000000    0.000000000000
   0.000000000000    6.004669324550    0.000000000000
   0.000000000000    0.000000000000   29.721596787206
Al Au
12 6
direct
   0.250000000000    0.250000000000    0.392857142857 Al
   0.250000000000    0.750000000000    0.392857142857 Al
   0.750000000000    0.750000000000    0.321428571429 Al
   0.750000000000    0.250000000000    0.321428571429 Al
   0.250000000000    0.250000000000    0.535714285714 Al
   0.250000000000    0.750000000000    0.535714285714 Al
   0.750000000000    0.750000000000    0.464285714286 Al
   0.750000000000    0.250000000000    0.464285714286 Al
   0.250000000000    0.250000000000    0.678571428571 Al
   0.250000000000    0.750000000000    0.678571428571 Al
   0.750000000000    0.750000000000    0.607142857143 Al
   0.750000000000    0.250000000000    0.607142857143 Al
   0.750000000000    1.000000000000    0.392857142857 Au
   0.250000000000    0.500000000000    0.321428571429 Au
   0.750000000000    1.000000000000    0.535714285714 Au
   0.250000000000    0.500000000000    0.464285714286 Au
   0.750000000000    1.000000000000    0.678571428571 Au
   0.250000000000    0.500000000000    0.607142857143 Au
