mp-aaadjydh Mn3Co (001) term 0 selfslab
1.0
   5.138392468064    0.000000000000    0.000000000000
  -2.081337578140    4.697990106596    0.000000000000
   0.000000000000    0.000000000000   29.950405730764
Mn Co
18 6
direct
   0.354355165000    0.645644835000    0.678571428571 Mn
   0.865072805000    0.640276775000    0.678571428571 Mn
   0.359723225000    0.134927195000    0.678571428571 Mn
   0.645644835000    0.354355165000    0.607142857143 Mn
   0.134927195000    0.359723225000    0.607142857143 Mn
   0.640276775000    0.865072805000    0.607142857143 Mn
   0.354355165000    0.645644835000    0.535714285714 Mn
   0.865072805000    0.640276775000    0.535714285714 Mn
   0.359723225000    0.134927195000    0.535714285714 Mn
   0.645644835000    0.354355165000    0.464285714286 Mn
   0.134927195000    0.359723225000    0.464285714286 Mn
   0.640276775000    0.865072805000    0.464285714286 Mn
   0.354355165000    0.645644835000    0.392857142857 Mn
   0.865072805000    0.640276775000    0.392857142857 Mn
   0.359723225000    0.134927195000    0.392857142857 Mn
   0.645644835000    0.354355165000    0.321428571429 Mn
   0.134927195000    0.359723225000    0.321428571429 Mn
   0.640276775000    0.865072805000    0.321428571429 Mn
   0.132389225000    0.867610775000    0.607142857143 Co
   0.867610775000    0.132389225000    0.678571428571 Co
   0.132389225000    0.867610775000    0.464285714286 Co
   0.867610775000    0.132389225000    0.535714285714 Co
   0.132389225000    0.867610775000    0.321428571429 Co
   0.867610775000    0.132389225000    0.392857142857 Co
