mp-aaaabjil Ca(HO)2 (001) term 2 selfslab
1.0
   3.587766751213    0.000000000000    0.000000000000
  -1.793883375607    3.107097149404    0.000000000000
   0.000000000000    0.000000000000   33.661413628949
Ca H O
3 6 6
direct
   0.000000000000    0.000000000000    0.357142857143 Ca
   0.000000000000    0.000000000000    0.500000000000 Ca
   0.000000000000    0.000000000000    0.642857142857 Ca
   0.666666666667    0.333333333333    0.294287373358 H
   0.333333333333    0.666666666667    0.419998340928 H
   0.666666666667    0.333333333333    0.437144516215 H
   0.333333333333    0.666666666667    0.562855483785 H
   0.666666666667    0.333333333333    0.580001659072 H
   0.333333333333    0.666666666667    0.705712626642 H
   0.666666666667    0.333333333333    0.322973472722 O
   0.333333333333    0.666666666667    0.391312241564 O
   0.666666666667    0.333333333333    0.465830615579 O
   0.333333333333    0.666666666667    0.534169384421 O
   0.666666666667    0.333333333333    0.608687758436 O
   0.333333333333    0.666666666667    0.677026527278 O
