mp-aaacqqea YSi2Ni (001) term 0 selfslab
1.0
   3.998156340000    0.000000000000    0.000000000000
  -1.999078170000    8.184613540000    0.000000000000
   0.000000000000    0.000000000000   27.593455470000
Y Si Ni
6 12 6
direct
   0.394038500000    0.788077000000    0.321428571429 Y
   0.605961500000    0.211923000000    0.392857142857 Y
   0.394038500000    0.788077000000    0.464285714286 Y
   0.605961500000    0.211923000000    0.535714285714 Y
   0.394038500000    0.788077000000    0.607142857143 Y
   0.605961500000    0.211923000000    0.678571428571 Y
   0.040603230000    0.081206460000    0.321428571429 Si
   0.959396770000    0.918793540000    0.392857142857 Si
   0.749872900000    0.499745800000    0.321428571429 Si
   0.250127100000    0.500254200000    0.392857142857 Si
   0.040603230000    0.081206460000    0.464285714286 Si
   0.959396770000    0.918793540000    0.535714285714 Si
   0.749872900000    0.499745800000    0.464285714286 Si
   0.250127100000    0.500254200000    0.535714285714 Si
   0.040603230000    0.081206460000    0.607142857143 Si
   0.959396770000    0.918793540000    0.678571428571 Si
   0.749872900000    0.499745800000    0.607142857143 Si
   0.250127100000    0.500254200000    0.678571428571 Si
   0.178055260000    0.356110520000    0.321428571429 Ni
   0.821944740000    0.643889480000    0.392857142857 Ni
   0.178055260000    0.356110520000    0.464285714286 Ni
   0.821944740000    0.643889480000    0.535714285714 Ni
   0.178055260000    0.356110520000    0.607142857143 Ni
   0.821944740000    0.643889480000    0.678571428571 Ni
