01_mp-aaaabicq	Zr_sv	PAW_PBE Zr_sv 04Jan2005	12.000
01_mp-aaaabicq	I	PAW_PBE I 08Apr2002	7.000
01_mp-aaaabicq	N	PAW_PBE N 08Apr2002	5.000
02_mp-aaaabjil	Ca_sv	PAW_PBE Ca_sv 06Sep2000	10.000
02_mp-aaaabjil	H	PAW_PBE H 15Jun2001	1.000
02_mp-aaaabjil	O	PAW_PBE O 08Apr2002	6.000
03_mp-aaabxapz	Ti_pv	PAW_PBE Ti_pv 07Sep2000	10.000
03_mp-aaabxapz	Co	PAW_PBE Co 02Aug2007	9.000
03_mp-aaabxapz	Ir	PAW_PBE Ir 06Sep2000	9.000
04_mp-aaahhkfw	Mg_pv	PAW_PBE Mg_pv 13Apr2007	8.000
04_mp-aaahhkfw	Zn	PAW_PBE Zn 06Sep2000	12.000
04_mp-aaahhkfw	Pt	PAW_PBE Pt 04Feb2005	10.000
05_mp-aaaabsyn	Li_sv	PAW_PBE Li_sv 10Sep2004	3.000
05_mp-aaaabsyn	Ga_d	PAW_PBE Ga_d 06Jul2010	13.000
05_mp-aaaabsyn	Au	PAW_PBE Au 04Oct2007	11.000
06_mp-aaacjkvs	Ti_pv	PAW_PBE Ti_pv 07Sep2000	10.000
06_mp-aaacjkvs	Sn_d	PAW_PBE Sn_d 06Sep2000	14.000
07_mp-aaahhths	In_d	PAW_PBE In_d 06Sep2000	13.000
07_mp-aaahhths	P	PAW_PBE P 06Sep2000	5.000
07_mp-aaahhths	Ru_pv	PAW_PBE Ru_pv 28Jan2005	14.000
08_mp-aaaaagqm	Ba_sv	PAW_PBE Ba_sv 06Sep2000	10.000
08_mp-aaaaagqm	P	PAW_PBE P 06Sep2000	5.000
08_mp-aaaaagqm	Ru_pv	PAW_PBE Ru_pv 28Jan2005	14.000
09_mp-aaacezrr	Li_sv	PAW_PBE Li_sv 10Sep2004	3.000
09_mp-aaacezrr	Zr_sv	PAW_PBE Zr_sv 04Jan2005	12.000
09_mp-aaacezrr	Se	PAW_PBE Se 06Sep2000	6.000
10_mp-aaacrfiw	V_pv	PAW_PBE V_pv 07Sep2000	11.000
10_mp-aaacrfiw	Cr_pv	PAW_PBE Cr_pv 02Aug2007	12.000
10_mp-aaacrfiw	P	PAW_PBE P 06Sep2000	5.000
11_mp-aaacqqai	Hf_pv	PAW_PBE Hf_pv 06Sep2000	10.000
11_mp-aaacqqai	Mn_pv	PAW_PBE Mn_pv 02Aug2007	13.000
11_mp-aaacqqai	F	PAW_PBE F 08Apr2002	7.000
12_mp-aaabxhim	Li_sv	PAW_PBE Li_sv 10Sep2004	3.000
12_mp-aaabxhim	Pd	PAW_PBE Pd 04Jan2005	10.000
12_mp-aaabxhim	Au	PAW_PBE Au 04Oct2007	11.000
13_mp-aaahaebj	Hf_pv	PAW_PBE Hf_pv 06Sep2000	10.000
13_mp-aaahaebj	Ga_d	PAW_PBE Ga_d 06Jul2010	13.000
13_mp-aaahaebj	P	PAW_PBE P 06Sep2000	5.000
14_mp-aaacqpak	Ba_sv	PAW_PBE Ba_sv 06Sep2000	10.000
14_mp-aaacqpak	Ag	PAW_PBE Ag 02Apr2005	11.000
14_mp-aaacqpak	Bi	PAW_PBE Bi 08Apr2002	5.000
15_mp-aaacpfaw	I	PAW_PBE I 08Apr2002	7.000
15_mp-aaacpfaw	Br	PAW_PBE Br 06Sep2000	7.000
16_mp-aaadbngd	Mg_pv	PAW_PBE Mg_pv 13Apr2007	8.000
16_mp-aaadbngd	Sn_d	PAW_PBE Sn_d 06Sep2000	14.000
16_mp-aaadbngd	F	PAW_PBE F 08Apr2002	7.000
17_mp-aaacdpvq	Ta_pv	PAW_PBE Ta_pv 07Sep2000	11.000
17_mp-aaacdpvq	V_pv	PAW_PBE V_pv 07Sep2000	11.000
17_mp-aaacdpvq	Ru_pv	PAW_PBE Ru_pv 28Jan2005	14.000
18_mp-aaabxbrv	Sc_sv	PAW_PBE Sc_sv 07Sep2000	11.000
18_mp-aaabxbrv	Pd	PAW_PBE Pd 04Jan2005	10.000
18_mp-aaabxbrv	Pt	PAW_PBE Pt 04Feb2005	10.000
19_mp-aaaaaaiv	Zr_sv	PAW_PBE Zr_sv 04Jan2005	12.000
19_mp-aaaaaaiv	Rh_pv	PAW_PBE Rh_pv 25Jan2005	15.000
20_mp-aaaabhvf	Hg	PAW_PBE Hg 06Sep2000	12.000
20_mp-aaaabhvf	I	PAW_PBE I 08Apr2002	7.000
21_mp-aaabxbqt	Li_sv	PAW_PBE Li_sv 10Sep2004	3.000
21_mp-aaabxbqt	As	PAW_PBE As 22Sep2009	5.000
21_mp-aaabxbqt	Rh_pv	PAW_PBE Rh_pv 25Jan2005	15.000
22_mp-aaahagdz	Zn	PAW_PBE Zn 06Sep2000	12.000
22_mp-aaahagdz	Sb	PAW_PBE Sb 06Sep2000	5.000
22_mp-aaahagdz	Rh_pv	PAW_PBE Rh_pv 25Jan2005	15.000
23_mp-aaacpkjv	Hf_pv	PAW_PBE Hf_pv 06Sep2000	10.000
23_mp-aaacpkjv	Zr_sv	PAW_PBE Zr_sv 04Jan2005	12.000
23_mp-aaacpkjv	Os_pv	PAW_PBE Os_pv 20Jan2003	14.000
24_mp-aaaaacvc	Ca_sv	PAW_PBE Ca_sv 06Sep2000	10.000
24_mp-aaaaacvc	As	PAW_PBE As 22Sep2009	5.000
25_mp-aaahhibq	Zr_sv	PAW_PBE Zr_sv 04Jan2005	12.000
25_mp-aaahhibq	Ga_d	PAW_PBE Ga_d 06Jul2010	13.000
25_mp-aaahhibq	As	PAW_PBE As 22Sep2009	5.000
26_mp-aaahafln	Ca_sv	PAW_PBE Ca_sv 06Sep2000	10.000
26_mp-aaahafln	Tc_pv	PAW_PBE Tc_pv 04Feb2005	13.000
26_mp-aaahafln	Ge_d	PAW_PBE Ge_d 03Jul2007	14.000
27_mp-aaaaakxt	Ba_sv	PAW_PBE Ba_sv 06Sep2000	10.000
27_mp-aaaaakxt	Al	PAW_PBE Al 04Jan2001	3.000
27_mp-aaaaakxt	Sn_d	PAW_PBE Sn_d 06Sep2000	14.000
28_mp-aaaaauaa	Na_pv	PAW_PBE Na_pv 19Sep2006	7.000
28_mp-aaaaauaa	Zn	PAW_PBE Zn 06Sep2000	12.000
28_mp-aaaaauaa	Ge_d	PAW_PBE Ge_d 03Jul2007	14.000
29_mp-aaabxgjl	Y_sv	PAW_PBE Y_sv 25May2007	11.000
29_mp-aaabxgjl	Cd	PAW_PBE Cd 06Sep2000	12.000
29_mp-aaabxgjl	Hg	PAW_PBE Hg 06Sep2000	12.000
30_mp-aaadjydh	Mn_pv	PAW_PBE Mn_pv 02Aug2007	13.000
30_mp-aaadjydh	Co	PAW_PBE Co 02Aug2007	9.000
31_mp-aaaabjqf	Sc_sv	PAW_PBE Sc_sv 07Sep2000	11.000
31_mp-aaaabjqf	H	PAW_PBE H 15Jun2001	1.000
31_mp-aaaabjqf	Cl	PAW_PBE Cl 06Sep2000	7.000
32_mp-aaabxiuv	Sr_sv	PAW_PBE Sr_sv 07Sep2000	10.000
32_mp-aaabxiuv	In_d	PAW_PBE In_d 06Sep2000	13.000
32_mp-aaabxiuv	Hg	PAW_PBE Hg 06Sep2000	12.000
33_mp-aaadjzbl	I	PAW_PBE I 08Apr2002	7.000
33_mp-aaadjzbl	Cl	PAW_PBE Cl 06Sep2000	7.000
34_mp-aaaabgrv	Ga_d	PAW_PBE Ga_d 06Jul2010	13.000
34_mp-aaaabgrv	Pt	PAW_PBE Pt 04Feb2005	10.000
35_mp-aaacqqea	Y_sv	PAW_PBE Y_sv 25May2007	11.000
35_mp-aaacqqea	Si	PAW_PBE Si 05Jan2001	4.000
35_mp-aaacqqea	Ni_pv	PAW_PBE Ni_pv 06Sep2000	16.000
36_mp-aaaaadxv	Al	PAW_PBE Al 04Jan2001	3.000
36_mp-aaaaadxv	Au	PAW_PBE Au 04Oct2007	11.000
37_mp-aaaaabxl	Pt	PAW_PBE Pt 04Feb2005	10.000
37_mp-aaaaabxl	O	PAW_PBE O 08Apr2002	6.000
38_mp-aaaabuem	K_sv	PAW_PBE K_sv 06Sep2000	9.000
38_mp-aaaabuem	Mg_pv	PAW_PBE Mg_pv 13Apr2007	8.000
38_mp-aaaabuem	F	PAW_PBE F 08Apr2002	7.000
39_mp-aaaabiaz	Ca_sv	PAW_PBE Ca_sv 06Sep2000	10.000
39_mp-aaaabiaz	Br	PAW_PBE Br 06Sep2000	7.000
39_mp-aaaabiaz	N	PAW_PBE N 08Apr2002	5.000
40_mp-aaacpnwy	Sc_sv	PAW_PBE Sc_sv 07Sep2000	11.000
40_mp-aaacpnwy	Sn_d	PAW_PBE Sn_d 06Sep2000	14.000
