mp-aaaabicq ZrIN (001) term 0 selfslab
1.0
   3.755144870000    0.000000000000    0.000000000000
   0.000000000000    4.118489740000    0.000000000000
   0.000000000000    0.000000000000   38.817237920000
Zr I N
4 4 4
direct
   0.000000000000    0.500000000000    0.477988372500 Zr
   0.500000000000    0.000000000000    0.272011627500 Zr
   0.000000000000    0.500000000000    0.727988372500 Zr
   0.500000000000    0.000000000000    0.522011627500 Zr
   0.500000000000    0.500000000000    0.418485837500 I
   0.000000000000    0.000000000000    0.331514162500 I
   0.500000000000    0.500000000000    0.668485837500 I
   0.000000000000    0.000000000000    0.581514162500 I
   0.000000000000    0.000000000000    0.494005435000 N
   0.500000000000    0.500000000000    0.255994565000 N
   0.000000000000    0.000000000000    0.744005435000 N
   0.500000000000    0.500000000000    0.505994565000 N
