mp-aaaaacvc CaAs3 (001) term 0 selfslab
1.0
   5.889227958296    0.000000000000    0.000000000000
   1.430860571115    5.715041410898    0.000000000000
   0.000000000000    0.000000000000   27.897633134641
Ca As
4 12
direct
   0.488024608441    0.947878114005    0.374012130000 Ca
   0.879650222727    1.344318038040    0.425987870000 Ca
   0.579943316233    1.270927152016    0.574012130000 Ca
   0.971568930520    1.667367076051    0.625987870000 Ca
   1.220179139886    1.018674112197    0.497095108000 As
   0.147495691283    1.273522039847    0.302904892000 As
   0.334992091614    1.491160206869    0.419015968000 As
   1.032682739554    0.801035945176    0.380984032000 As
   0.631421292618    0.995649381736    0.481206814000 As
   0.736253538550    1.296546770309    0.318793186000 As
   1.312097847678    1.341723150208    0.697095108000 As
   0.239414399075    1.596571077858    0.502904892000 As
   0.426910799406    1.814209244880    0.619015968000 As
   1.124601447346    1.124084983187    0.580984032000 As
   0.723340000410    1.318698419747    0.681206814000 As
   0.828172246342    1.619595808320    0.518793186000 As
