mp-aaacrfiw VCrP2 (001) term 0 selfslab
1.0
   3.140911950009    0.000000000000    0.000000000000
   0.000000000000    5.416767770205    0.000000000000
   0.000000000000    0.000000000000   30.458928001138
V Cr P
4 4 8
direct
   0.000000000000    0.505723750000    0.310609918000 V
   0.000000000000    0.005723750000    0.489390082000 V
   0.000000000000    0.505723750000    0.510609918000 V
   0.000000000000    0.005723750000    0.689390082000 V
   0.500000000000    0.493242270000    0.388599548000 Cr
   0.500000000000    0.993242270000    0.411400452000 Cr
   0.500000000000    0.493242270000    0.588599548000 Cr
   0.500000000000    0.993242270000    0.611400452000 Cr
   0.500000000000    0.310258610000    0.462461760000 P
   0.500000000000    0.810258610000    0.337538240000 P
   0.000000000000    0.690775130000    0.435732338000 P
   0.000000000000    0.190775130000    0.364267662000 P
   0.500000000000    0.310258610000    0.662461760000 P
   0.500000000000    0.810258610000    0.537538240000 P
   0.000000000000    0.690775130000    0.635732338000 P
   0.000000000000    0.190775130000    0.564267662000 P
