mp-aaabxhim Li2PdAu (110) term 0 selfslab
1.0
   4.251205210678    0.000000000000    0.000000000000
   0.000000000000    6.012112065372    0.000000000000
   0.000000000000    0.000000000000   29.758436474745
Li Pd Au
12 6 6
direct
   0.750000000000    0.250000000000    0.321428571429 Li
   0.750000000000    0.750000000000    0.321428571429 Li
   0.250000000000    0.750000000000    0.392857142857 Li
   0.250000000000    0.250000000000    0.392857142857 Li
   0.750000000000    0.250000000000    0.464285714286 Li
   0.750000000000    0.750000000000    0.464285714286 Li
   0.250000000000    0.750000000000    0.535714285714 Li
   0.250000000000    0.250000000000    0.535714285714 Li
   0.750000000000    0.250000000000    0.607142857143 Li
   0.750000000000    0.750000000000    0.607142857143 Li
   0.250000000000    0.750000000000    0.678571428571 Li
   0.250000000000    0.250000000000    0.678571428571 Li
   0.750000000000    1.000000000000    0.392857142857 Pd
   0.250000000000    0.500000000000    0.321428571429 Pd
   0.750000000000    1.000000000000    0.535714285714 Pd
   0.250000000000    0.500000000000    0.464285714286 Pd
   0.750000000000    1.000000000000    0.678571428571 Pd
   0.250000000000    0.500000000000    0.607142857143 Pd
   0.750000000000    0.500000000000    0.392857142857 Au
   0.250000000000    1.000000000000    0.321428571429 Au
   0.750000000000    0.500000000000    0.535714285714 Au
   0.250000000000    1.000000000000    0.464285714286 Au
   0.750000000000    0.500000000000    0.678571428571 Au
   0.250000000000    1.000000000000    0.607142857143 Au
