mp-aaabxbqt LiAsRh2 (110) term 0 selfslab
1.0
   4.159894570752    0.000000000000    0.000000000000
   0.000000000000    5.882979320000    0.000000000000
   0.000000000000    0.000000000000   29.119261995266
Li As Rh
6 6 12
direct
   0.250000000000    0.000000000000    0.392857142857 Li
   0.750000000000    0.500000000000    0.321428571429 Li
   0.250000000000    0.000000000000    0.535714285714 Li
   0.750000000000    0.500000000000    0.464285714286 Li
   0.250000000000    0.000000000000    0.678571428571 Li
   0.750000000000    0.500000000000    0.607142857143 Li
   0.750000000000    0.000000000000    0.321428571429 As
   0.250000000000    0.500000000000    0.392857142857 As
   0.750000000000    0.000000000000    0.464285714286 As
   0.250000000000    0.500000000000    0.535714285714 As
   0.750000000000    0.000000000000    0.607142857143 As
   0.250000000000    0.500000000000    0.678571428571 As
   0.250000000000    0.750000000000    0.321428571429 Rh
   0.750000000000    0.750000000000    0.392857142857 Rh
   0.750000000000    0.250000000000    0.392857142857 Rh
   0.250000000000    0.250000000000    0.321428571429 Rh
   0.250000000000    0.750000000000    0.464285714286 Rh
   0.750000000000    0.750000000000    0.535714285714 Rh
   0.750000000000    0.250000000000    0.535714285714 Rh
   0.250000000000    0.250000000000    0.464285714286 Rh
   0.250000000000    0.750000000000    0.607142857143 Rh
   0.750000000000    0.750000000000    0.678571428571 Rh
   0.750000000000    0.250000000000    0.678571428571 Rh
   0.250000000000    0.250000000000    0.607142857143 Rh
