mp-aaabxbrv Sc2PdPt (110) term 0 selfslab
1.0
   4.653594389914    0.000000000000    0.000000000000
   0.000000000000    6.581176300000    0.000000000000
   0.000000000000    0.000000000000   32.575160729399
Sc Pd Pt
12 6 6
direct
   0.750000000000    0.750000000000    0.321428571429 Sc
   0.250000000000    0.750000000000    0.392857142857 Sc
   0.250000000000    0.250000000000    0.392857142857 Sc
   0.750000000000    0.250000000000    0.321428571429 Sc
   0.750000000000    0.750000000000    0.464285714286 Sc
   0.250000000000    0.750000000000    0.535714285714 Sc
   0.250000000000    0.250000000000    0.535714285714 Sc
   0.750000000000    0.250000000000    0.464285714286 Sc
   0.750000000000    0.750000000000    0.607142857143 Sc
   0.250000000000    0.750000000000    0.678571428571 Sc
   0.250000000000    0.250000000000    0.678571428571 Sc
   0.750000000000    0.250000000000    0.607142857143 Sc
   0.250000000000    0.000000000000    0.321428571429 Pd
   0.750000000000    0.500000000000    0.392857142857 Pd
   0.250000000000    0.000000000000    0.464285714286 Pd
   0.750000000000    0.500000000000    0.535714285714 Pd
   0.250000000000    0.000000000000    0.607142857143 Pd
   0.750000000000    0.500000000000    0.678571428571 Pd
   0.750000000000    0.000000000000    0.392857142857 Pt
   0.250000000000    0.500000000000    0.321428571429 Pt
   0.750000000000    0.000000000000    0.535714285714 Pt
   0.250000000000    0.500000000000    0.464285714286 Pt
   0.750000000000    0.000000000000    0.678571428571 Pt
   0.250000000000    0.500000000000    0.607142857143 Pt
