mp-aaahhths InPRu2 (001) term 0 selfslab
1.0
   3.167557924236    0.000000000000    0.000000000000
   0.000000000000    5.903596708486    0.000000000000
   0.000000000000    0.000000000000   34.113027529790
In P Ru
4 4 8
direct
   0.000000000000    0.500000000000    0.391775293624 In
   0.500000000000    0.000000000000    0.408224706376 In
   0.000000000000    0.500000000000    0.591775293624 In
   0.500000000000    0.000000000000    0.608224706376 In
   0.000000000000    0.000000000000    0.315954567042 P
   0.500000000000    0.500000000000    0.484045432958 P
   0.000000000000    0.000000000000    0.515954567042 P
   0.500000000000    0.500000000000    0.684045432958 P
   0.500000000000    0.251441704134    0.337015958295 Ru
   0.500000000000    0.748558295866    0.337015958295 Ru
   0.000000000000    0.248558295866    0.462984041705 Ru
   0.000000000000    0.751441704134    0.462984041705 Ru
   0.500000000000    0.251441704134    0.537015958295 Ru
   0.500000000000    0.748558295866    0.537015958295 Ru
   0.000000000000    0.248558295866    0.662984041705 Ru
   0.000000000000    0.751441704134    0.662984041705 Ru
