mp-aaaabuem K2MgF4 (001) term 1 selfslab
1.0
   3.953554159236    0.000000000000    0.000000000000
   0.000000000000    3.953554159236    0.000000000000
   0.000000000000    0.000000000000   39.360907324824
K Mg F
4 2 8
direct
   0.000000000000    0.000000000000    0.465887435000 K
   0.500000000000    0.500000000000    0.534112565000 K
   0.500000000000    0.500000000000    0.632554101667 K
   0.000000000000    0.000000000000    0.367445898333 K
   0.000000000000    0.000000000000    0.583333333333 Mg
   0.500000000000    0.500000000000    0.416666666667 Mg
   0.000000000000    0.500000000000    0.583333333333 F
   0.500000000000    0.000000000000    0.583333333333 F
   0.000000000000    0.000000000000    0.532509361667 F
   0.500000000000    0.500000000000    0.467490638333 F
   0.500000000000    0.000000000000    0.416666666667 F
   0.000000000000    0.500000000000    0.416666666667 F
   0.500000000000    0.500000000000    0.365842695000 F
   0.000000000000    0.000000000000    0.634157305000 F
