mp-aaabxgjl YCdHg2 (110) term 0 selfslab
1.0
   5.060550846359    0.000000000000    0.000000000000
   0.000000000000    7.156699640000    0.000000000000
   0.000000000000    0.000000000000   25.302754231797
Y Cd Hg
4 4 8
direct
   0.250000000000    1.000000000000    0.450000000000 Y
   0.750000000000    0.500000000000    0.350000000000 Y
   0.250000000000    1.000000000000    0.650000000000 Y
   0.750000000000    0.500000000000    0.550000000000 Y
   0.750000000000    1.000000000000    0.350000000000 Cd
   0.250000000000    0.500000000000    0.450000000000 Cd
   0.750000000000    1.000000000000    0.550000000000 Cd
   0.250000000000    0.500000000000    0.650000000000 Cd
   0.250000000000    0.750000000000    0.350000000000 Hg
   0.250000000000    0.250000000000    0.350000000000 Hg
   0.750000000000    0.250000000000    0.450000000000 Hg
   0.750000000000    0.750000000000    0.450000000000 Hg
   0.250000000000    0.750000000000    0.550000000000 Hg
   0.250000000000    0.250000000000    0.550000000000 Hg
   0.750000000000    0.250000000000    0.650000000000 Hg
   0.750000000000    0.750000000000    0.650000000000 Hg
