mp-aaaaakxt Ba3(AlSn)2 (001) term 3 selfslab
1.0
   4.621454772004    0.000000000000    0.000000000000
   0.000000000000    5.301762868022    0.000000000000
   0.000000000000    0.000000000000   41.429483752287
Ba Al Sn
6 4 4
direct
   0.500000000000    0.000000000000    0.625000000000 Ba
   0.500000000000    0.500000000000    0.283927867500 Ba
   0.000000000000    0.000000000000    0.716072132500 Ba
   0.000000000000    0.500000000000    0.375000000000 Ba
   0.000000000000    0.000000000000    0.533927867500 Ba
   0.500000000000    0.500000000000    0.466072132500 Ba
   0.500000000000    0.000000000000    0.344140720000 Al
   0.000000000000    0.500000000000    0.655859280000 Al
   0.000000000000    0.500000000000    0.594140720000 Al
   0.500000000000    0.000000000000    0.405859280000 Al
   0.000000000000    0.000000000000    0.307397845000 Sn
   0.500000000000    0.500000000000    0.692602155000 Sn
   0.500000000000    0.500000000000    0.557397845000 Sn
   0.000000000000    0.000000000000    0.442602155000 Sn
