mp-aaahagdz Zn3SbRh4 (110) term 0 selfslab
1.0
   7.468417631181    0.000000000000    0.000000000000
  -2.489472543727    7.077040825573    0.000000000000
   0.000000000000    0.000000000000   25.871357578698
Zn Sb Rh
15 5 20
direct
   0.242664118916    0.727992356747    0.333333333333 Zn
   0.757335881084    0.272007643253    0.333333333333 Zn
   0.500000000000    0.500000000000    0.333333333333 Zn
   0.742664118916    0.727992356747    0.416666666667 Zn
   0.257335881084    0.272007643253    0.416666666667 Zn
   1.000000000000    0.500000000000    0.416666666667 Zn
   0.242664118916    0.727992356747    0.500000000000 Zn
   0.757335881084    0.272007643253    0.500000000000 Zn
   0.500000000000    0.500000000000    0.500000000000 Zn
   0.742664118916    0.727992356747    0.583333333333 Zn
   0.257335881084    0.272007643253    0.583333333333 Zn
   1.000000000000    0.500000000000    0.583333333333 Zn
   0.242664118916    0.727992356747    0.666666666667 Zn
   0.757335881084    0.272007643253    0.666666666667 Zn
   0.500000000000    0.500000000000    0.666666666667 Zn
   1.000000000000    0.000000000000    0.333333333333 Sb
   0.500000000000    0.000000000000    0.416666666667 Sb
   1.000000000000    0.000000000000    0.500000000000 Sb
   0.500000000000    0.000000000000    0.583333333333 Sb
   1.000000000000    0.000000000000    0.666666666667 Sb
   0.877127840756    0.631383522269    0.333333333333 Rh
   0.373881949649    0.121645848947    0.333333333333 Rh
   0.122872159244    0.368616477731    0.333333333333 Rh
   0.626118050351    0.878354151053    0.333333333333 Rh
   0.377127840756    0.631383522269    0.416666666667 Rh
   0.873881949649    0.121645848947    0.416666666667 Rh
   0.622872159244    0.368616477731    0.416666666667 Rh
   0.126118050351    0.878354151053    0.416666666667 Rh
   0.877127840756    0.631383522269    0.500000000000 Rh
   0.373881949649    0.121645848947    0.500000000000 Rh
   0.122872159244    0.368616477731    0.500000000000 Rh
   0.626118050351    0.878354151053    0.500000000000 Rh
   0.377127840756    0.631383522269    0.583333333333 Rh
   0.873881949649    0.121645848947    0.583333333333 Rh
   0.622872159244    0.368616477731    0.583333333333 Rh
   0.126118050351    0.878354151053    0.583333333333 Rh
   0.877127840756    0.631383522269    0.666666666667 Rh
   0.373881949649    0.121645848947    0.666666666667 Rh
   0.122872159244    0.368616477731    0.666666666667 Rh
   0.626118050351    0.878354151053    0.666666666667 Rh
